587
1   1   0    0    0 0
1   2   36   38   0 17 37 15 44 0
1   3   26   50   0 4 18 0
1   4   64   79   0 13 41 40 19 42 0
2   1   75   78   0 27 8 26 31 28 22 0
2   2   24   59   0 46 12 47 0
2   3   50   64   0 25 14 6 0
2   4   79   73   0 48 23 7 43 24 0
3   1   38   74   0 9 50 21 34 30 0
3   2   4    18   0 49 0
3   3   69   73   0 10 39 33 45 5 0
3   4   54   68   0 16 1 32 11 38 0
4   1   0    0    0 0
4   2   0    0    0 0
4   3   46   67   0 35 36 3 20 0
4   4   22   36   0 29 2 0